TITL  QCrBox generated cif
CELL 0.56086 29.646 10.87 18.065 90 125.02 90
ZERR 4 0.002 0.002 0.003 0.0 0.02 0.0
LATT 7
SYMM -X,Y,-Z+1/2
SFAC C H N O S Pt
UNIT 104 172 4 4 4 4
TEMP -173.0
SIZE 0.178 0.114 0.065
CONF
BOND $H
L.S. 10
LIST 4
ACTA
BOND
FMAP 2
MORE -1
WGHT 0.0173 2.2099
FVAR 0.05650
Pt1 6   0.50000   0.13464   0.25000  11.00000   0.00560   0.00634 =
  0.00622   0.00000   0.00331   0.00000
S2 5   0.52272  -0.06016   0.31977  11.00000   0.01381   0.00903 =
  0.01185   0.00185   0.00709   0.00140
N3 3   0.58839   0.30763   0.39010  11.00000   0.00648   0.00751 =
  0.00737  -0.00069   0.00407  -0.00025
C4 1   0.54356   0.24051   0.36032  11.00000   0.00692   0.00685 =
  0.00921   0.00341   0.00404   0.00399
C5 1   0.53403   0.23554   0.43633  11.00000   0.00747   0.01247 =
  0.00752  -0.00033   0.00476  -0.00113
C6 1   0.57017   0.34140   0.49839  11.00000   0.01002   0.01166 =
  0.00855   0.00002   0.00545   0.00023
AFIX 23
H6A 2   0.54879   0.41888   0.48032  11.00000 -1.20
H6B 2   0.58443   0.32302   0.56196  11.00000 -1.20
AFIX 0
C7 1   0.61726   0.35260   0.48779  11.00000   0.01223   0.01248 =
  0.00803  -0.00288   0.00626  -0.00267
C8 1   0.66642   0.26924   0.55036  11.00000   0.00866   0.01726 =
  0.00909  -0.00169   0.00356  -0.00187
AFIX 137
H8A 2   0.65392   0.18371   0.54209  11.00000 -1.50
H8B 2   0.68339   0.29385   0.61328  11.00000 -1.50
H8C 2   0.69349   0.27667   0.53586  11.00000 -1.50
AFIX 0
C9 1   0.63852   0.48406   0.50366  11.00000   0.01413   0.01557 =
  0.01270  -0.00488   0.00738  -0.00568
AFIX 137
H9A 2   0.66433   0.49161   0.48652  11.00000 -1.50
H9B 2   0.65741   0.50484   0.56773  11.00000 -1.50
H9C 2   0.60751   0.54042   0.46696  11.00000 -1.50
AFIX 0
C10 1   0.55308   0.10732   0.48393  11.00000   0.01222   0.01206 =
  0.01038   0.00064   0.00705  -0.00181
AFIX 23
H10A 2   0.52120   0.05066   0.45161  11.00000 -1.20
H10B 2   0.58145   0.07494   0.47644  11.00000 -1.20
AFIX 0
C11 1   0.57651   0.10267   0.58463  11.00000   0.01561   0.01867 =
  0.01073   0.00412   0.00673  -0.00110
AFIX 137
H11A 2   0.55093   0.14326   0.59467  11.00000 -1.50
H11B 2   0.61213   0.14503   0.61940  11.00000 -1.50
H11C 2   0.58147   0.01673   0.60427  11.00000 -1.50
AFIX 0
C12 1   0.47245   0.25448   0.39422  11.00000   0.00968   0.01366 =
  0.01033  -0.00055   0.00673  -0.00063
AFIX 23
H12A 2   0.46011   0.32967   0.35650  11.00000 -1.20
H12B 2   0.45184   0.18420   0.35366  11.00000 -1.20
AFIX 0
C13 1   0.45715   0.26649   0.46156  11.00000   0.01232   0.03197 =
  0.01733  -0.00263   0.00995  -0.00089
AFIX 137
H13A 2   0.41780   0.28517   0.42893  11.00000 -1.50
H13B 2   0.47868   0.33299   0.50429  11.00000 -1.50
H13C 2   0.46517   0.18899   0.49466  11.00000 -1.50
AFIX 0
AFIX 66
C14 1   0.61671   0.32309   0.34517  11.00000   0.00676   0.00968 =
  0.00797  -0.00227   0.00450  -0.00262
C15 1   0.64875   0.22830   0.34681  11.00000   0.00618   0.00868 =
  0.00550  -0.00138   0.00065  -0.00222
C16 1   0.67907   0.24664   0.31105  11.00000   0.00851   0.01273 =
  0.01177  -0.00188   0.00601   0.00176
AFIX 43
H16 2   0.70097   0.18185   0.31218  11.00000 -1.20
AFIX 65
C17 1   0.67737   0.35976   0.27365  11.00000   0.01151   0.01776 =
  0.01480  -0.00027   0.01048  -0.00160
AFIX 43
H17 2   0.69810   0.37229   0.24921  11.00000 -1.20
AFIX 65
C18 1   0.64533   0.45456   0.27200  11.00000   0.01516   0.00971 =
  0.01381   0.00117   0.00968  -0.00268
AFIX 43
H18 2   0.64417   0.53187   0.24643  11.00000 -1.20
AFIX 65
C19 1   0.61501   0.43622   0.30776  11.00000   0.00894   0.00957 =
  0.01011  -0.00181   0.00477  -0.00073
AFIX 0
C20 1   0.57842   0.54601   0.29493  11.00000   0.01303   0.00905 =
  0.01702   0.00165   0.01116   0.00113
AFIX 13
H20 2   0.55978   0.52614   0.32526  11.00000 -1.20
AFIX 0
C21 1   0.53400   0.57044   0.19481  11.00000   0.01520   0.01592 =
  0.02169   0.00415   0.01259   0.00354
AFIX 137
H21A 2   0.55149   0.58696   0.16342  11.00000 -1.50
H21B 2   0.51198   0.64185   0.18895  11.00000 -1.50
H21C 2   0.51008   0.49818   0.16796  11.00000 -1.50
AFIX 0
C22 1   0.61124   0.66595   0.33604  11.00000   0.02100   0.00941 =
  0.02631  -0.00177   0.01677  -0.00192
AFIX 137
H22A 2   0.62295   0.69684   0.29860  11.00000 -1.50
H22B 2   0.64372   0.64987   0.39735  11.00000 -1.50
H22C 2   0.58793   0.72753   0.33836  11.00000 -1.50
AFIX 0
C23 1   0.65439   0.09784   0.38471  11.00000   0.01099   0.00791 =
  0.01382   0.00104   0.00832   0.00120
AFIX 13
H23 2   0.63163   0.09263   0.40931  11.00000 -1.20
AFIX 0
C24 1   0.71453   0.06814   0.46105  11.00000   0.01336   0.01570 =
  0.01663   0.00411   0.00799   0.00319
AFIX 137
H24A 2   0.73672   0.06619   0.43664  11.00000 -1.50
H24B 2   0.71630  -0.01222   0.48719  11.00000 -1.50
H24C 2   0.72892   0.13152   0.50798  11.00000 -1.50
AFIX 0
C25 1   0.63386   0.00078   0.31037  11.00000   0.01457   0.01247 =
  0.01921  -0.00225   0.01092  -0.00053
AFIX 137
H25A 2   0.59525   0.01722   0.26165  11.00000 -1.50
H25B 2   0.63699  -0.08110   0.33562  11.00000 -1.50
H25C 2   0.65622   0.00417   0.28630  11.00000 -1.50
AFIX 0
O26 4   0.74729   0.35162   0.77366  11.00000   0.02710   0.04105 =
  0.01588  -0.00572   0.01122  -0.01180
C27 1   0.72915   0.25039   0.80079  11.00000   0.02195   0.02919 =
  0.02933  -0.01150   0.01887  -0.00634
AFIX 23
H27A 2   0.73705   0.17149   0.78299  11.00000 -1.20
H27B 2   0.68903   0.25591   0.77219  11.00000 -1.20
AFIX 0
C28 1   0.76066   0.25873   0.90246  11.00000   0.02383   0.02186 =
  0.02374   0.00141   0.01580   0.00077
AFIX 23
H28A 2   0.76575   0.17661   0.92993  11.00000 -1.20
H28B 2   0.74193   0.31359   0.92059  11.00000 -1.20
AFIX 0
C29 1   0.81530   0.31286   0.92834  11.00000   0.01502   0.02276 =
  0.02386  -0.00286   0.01040   0.00220
AFIX 23
H29A 2   0.83461   0.35544   0.98744  11.00000 -1.20
H29B 2   0.83973   0.24887   0.93032  11.00000 -1.20
AFIX 0
C30 1   0.79624   0.40256   0.85167  11.00000   0.02280   0.02953 =
  0.01988  -0.00632   0.01270  -0.00962
AFIX 23
H30A 2   0.78835   0.48384   0.86658  11.00000 -1.20
H30B 2   0.82501   0.41302   0.84045  11.00000 -1.20
AFIX 0
HKLF 4
END